(set-logic QF_S)
(declare-fun var0 () String)
(declare-fun var1 () String)
(declare-fun var2 () Int)
(declare-fun var3 () Int)
(declare-fun var4 () String)
(declare-fun var5 () String)
(declare-fun var6 () Bool)
(assert (>= (str.len var0) (str.to.int (str.substr var1 var2 var3))))
(assert (> (str.len var4) (str.to.int var5)))
(assert (str.prefixof var0 var0))
(assert (not var6))
(check-sat)